6932
7417
7806
8215
8574
8780
8934
9055
9159
9193
9240
9293
9320
9347
9381
9400
9437
9478
9515
9540
9564
9588
9605
9625
9651
9688
9716
9743
9755
9766
9775
9791
9809
9826
9850
9869
9888
9898
9905
9906
9912
9920
9931
9936
9944
9959
9967
9980
9999
10018
10059
10074
10078
10083
10087
10093
10101
10102
10103
10104
10105
10106
10108
10108
10109
10109
10109
10109
10109
10109
10109
10109
10109
10109
10109
10109
10109
10109
10110
10110
10110
10110
10110
10110
10110
10110
10110
10110
10110
10110
10110
10110
10110
10110
10110
10110
10110
10110
10110
